letting n =  10
letting blocks =  [[1, 1], [1, 10], [2, 1], [2, 6], [2, 10], [3, 1], [3, 5], [4, 6], [4, 10], [5, 5], [5, 7], [5, 9], [7, 8], [8, 2], [8, 7], [8, 8], [8, 9], [9, 2], [9, 9], [10, 10]]
